10	5
0	2	1	2
1	1	6
2	2	5	3
3	1	4
4	1	10
5	1	4
6	1	9
7	1	3
8	1	7
9	1	8
10	1	11
11	0
0	0	0	0	0	0	0
1	3	4	4	5	1	2
2	8	2	1	5	2	4
3	2	4	2	4	2	1
4	1	3	5	3	3	5
5	10	2	4	2	5	4
6	4	5	2	5	4	2
7	2	2	3	3	1	5
8	4	5	3	4	5	3
9	5	3	3	5	5	2
10	10	3	1	2	3	4
11	0	0	0	0	0	0
5	5	5	5	5
